900943
4 31 3290
31 19 24202
19 12 31692
12 27 6411
27 30 12751
30 24 7859
24 38 4093
38 29 6375
29 36 941
36 25 14546
25 32 15458
32 11 3967
11 33 39715
33 22 31609
22 37 7449
37 28 745
28 35 16895
35 6 11794
6 5 28722
5 8 47658
8 16 102410
16 13 42391
13 2 30026
2 15 71701
15 14 36816
14 7 26227
7 10 17581
10 0 8732
0 20 6578
20 9 5744
9 34 6355
34 1 10541
1 26 15288
26 17 12606
17 39 18404
39 18 13572
18 3 26533
3 21 23621
21 23 45980
23 4 63665
